p cnf 13 20
13 -12 8 0
13 -12 -4 0
13 12 -4 0
-13 -8 4 0
-13 7 -6 0
-13 5 1 0
12 -9 -7 0
-12 9 5 0
12 7 3 0
12 6 -5 0
11 -10 -6 0
-11 9 2 0
-11 -7 -4 0
10 -9 -4 0
-9 -4 -2 0
-8 7 -3 0
-8 -7 -1 0
6 3 2 0
-6 -2 -1 0
5 -4 3 0
